; benchmark generated from python API
(set-info :status unknown)
(declare-fun S_3 () Real)
(declare-fun C () Real)
(declare-fun L_1 () Real)
(declare-fun A_1 () Real)
(declare-fun S_4 () Real)
(declare-fun S_2 () Real)
(declare-fun L_2 () Real)
(declare-fun A_2 () Real)
(declare-fun L_0 () Real)
(declare-fun S_0 () Real)
(declare-fun A_0 () Real)
(declare-fun S_1 () Real)
(declare-fun L_4 () Real)
(declare-fun A_4 () Real)
(declare-fun L_3 () Real)
(declare-fun A_3 () Real)
(assert
 (let (($x34 (>= L_0 0.0)))
 (let (($x729 (>= C 5.0)))
 (let (($x19449 (<= (+ (* (- 1.0) A_4) A_1 (* (- 1.0) L_1) (* 3.0 C) L_4) (- 5.0))))
 (let ((?x459 (* (- 1.0) L_3)))
 (let ((?x377 (* (- 1.0) A_4)))
 (let ((?x2545 (+ ?x377 A_3 ?x459 C L_4)))
 (let (($x19204 (<= ?x2545 (- 5.0))))
 (let ((?x784 (* 2.0 C)))
 (let ((?x472 (* (- 1.0) L_2)))
 (let ((?x750 (+ ?x377 A_2 ?x472 ?x784 L_4)))
 (let (($x18826 (<= ?x750 (- 5.0))))
 (let (($x81 (= L_4 L_3)))
 (let (($x22147 (or $x81 $x18826 $x19204 $x19449 (<= (+ ?x377 (* 4.0 C) S_0 L_4) (- 5.0)))))
 (let (($x51 (= L_1 L_0)))
 (let (($x46231 (or $x51 (<= (+ (* (- 1.0) A_1) (* (- 2.0) C) S_3 L_1) (- 5.0)))))
 (let ((?x381 (* (- 1.0) A_3)))
 (let ((?x1262 (+ ?x381 A_2 ?x472 C L_3)))
 (let (($x19293 (<= ?x1262 (- 5.0))))
 (let (($x71 (= L_3 L_2)))
 (let (($x21627 (or $x71 (<= (+ ?x381 (* 3.0 C) S_0 L_3) (- 5.0)) $x19293 (<= (+ ?x381 A_1 (* (- 1.0) L_1) ?x784 L_3) (- 5.0)))))
 (let (($x2326 (<= (+ A_1 (* (- 1.0) L_1) (* (- 1.0) C) (* (- 1.0) S_1)) 0.0)))
 (let (($x45767 (or $x2326 (not (<= 0.0 (+ (* (- 1.0) A_1) (* (- 3.0) C) S_4 L_1))))))
 (let (($x2711 (<= (+ A_3 ?x459 (* (- 1.0) S_4)) 0.0)))
 (let (($x1052 (<= (+ A_2 ?x472 C (* (- 1.0) S_4)) 0.0)))
 (let (($x21362 (or $x1052 $x2711 (not (<= 0.0 (+ (* (- 1.0) A_2) C S_1 L_2))))))
 (let (($x61 (= L_2 L_1)))
 (let (($x21288 (or $x61 (<= (+ (* (- 1.0) A_2) (* (- 1.0) C) S_3 L_2) (- 5.0)))))
 (let ((?x389 (* (- 1.0) A_1)))
 (let ((?x2475 (+ ?x377 A_3 A_2 ?x389 ?x459 L_1 ?x472 L_4)))
 (let (($x19211 (<= 0.0 ?x2475)))
 (let ((?x446 (* (- 1.0) L_4)))
 (let ((?x385 (* (- 1.0) A_2)))
 (let (($x46439 (or $x61 (<= (+ A_4 ?x381 ?x385 L_3 C S_0 L_2 ?x446) 0.0) $x19211)))
 (let (($x19859 (<= 0.0 (+ A_4 ?x385 ?x446 (* (- 2.0) C) L_2))))
 (let ((?x439 (* (- 1.0) C)))
 (let ((?x1001 (* (- 1.0) A_0)))
 (let (($x45894 (or $x81 (<= (+ ?x377 A_3 A_2 ?x1001 ?x459 ?x439 ?x472 L_4 L_0) 0.0) $x19859)))
 (let (($x2560 (<= (+ ?x377 A_3 A_2 ?x459 ?x439 (* (- 1.0) S_1) ?x472 L_4) 0.0)))
 (let (($x23267 (or $x81 (<= (+ ?x377 A_3 A_2 ?x459 (* (- 1.0) S_2) ?x472 L_4) 0.0) $x19859)))
 (let ((?x862 (* (- 1.0) S_0)))
 (let ((?x852 (* (- 2.0) C)))
 (let (($x46228 (or $x81 (<= (+ ?x377 A_3 A_2 ?x459 ?x852 ?x862 ?x472 L_4) 0.0) $x19859)))
 (let (($x2671 (<= (+ ?x377 A_3 A_2 ?x459 C (* (- 1.0) S_3) ?x472 L_4) 0.0)))
 (let (($x46275 (or $x61 (<= (+ A_4 ?x381 ?x385 L_3 ?x439 S_2 L_2 ?x446) 0.0))))
 (let (($x19182 (<= (+ ?x385 ?x784 S_0 L_2) (- 5.0))))
 (let (($x45782 (or $x61 (<= (+ ?x385 A_1 (* (- 1.0) L_1) C L_2) (- 5.0)) $x19182)))
 (let (($x45794 (or $x61 (not (<= 0.0 (+ ?x385 A_1 (* (- 1.0) L_1) C L_2))) $x19182)))
 (let (($x46706 (or $x51 (<= (+ A_4 ?x381 ?x389 L_3 ?x852 S_2 L_1 ?x446) 0.0))))
 (let (($x45969 (or $x51 (<= (+ A_4 ?x381 ?x389 L_3 ?x439 S_1 L_1 ?x446) 0.0))))
 (let (($x19826 (<= 0.0 (+ A_4 ?x389 ?x446 (* (- 3.0) C) L_1))))
 (let (($x274 (<= 0.0 ?x1262)))
 (let (($x19097 (not $x274)))
 (let ((?x485 (* (- 1.0) L_1)))
 (let ((?x419 (* (- 1.0) S_2)))
 (let (($x44258 (or $x81 (<= (+ ?x377 A_3 A_1 ?x459 C ?x419 ?x485 L_4) 0.0) $x19097 $x19826)))
 (let (($x45532 (or $x81 (<= (+ ?x377 A_3 A_1 ?x459 ?x439 ?x862 ?x485 L_4) 0.0) $x19097 $x19826)))
 (let (($x46757 (or $x81 $x274 (<= (+ ?x377 A_2 A_1 ?x472 ?x862 ?x485 L_4) 0.0) $x19826)))
 (let (($x46581 (or $x51 (<= (+ A_4 ?x385 ?x389 L_2 ?x439 S_0 L_1 ?x446) 0.0))))
 (let (($x45446 (or $x81 $x274 (<= (+ ?x377 A_2 A_1 ?x472 ?x784 ?x419 ?x485 L_4) 0.0) $x19826)))
 (let (($x45476 (or $x81 (<= (+ ?x377 A_2 A_1 ?x1001 ?x472 C ?x485 L_4 L_0) 0.0) (<= (+ ?x377 A_3 A_1 ?x1001 ?x459 ?x485 L_4 L_0) 0.0) $x19826)))
 (let (($x571 (<= (+ ?x377 A_2 A_1 ?x472 C (* (- 1.0) S_1) ?x485 L_4) 0.0)))
 (let (($x45548 (or $x81 $x571 (<= (+ ?x377 A_3 A_1 ?x459 (* (- 1.0) S_1) ?x485 L_4) 0.0) $x19826)))
 (let (($x6431 (<= (+ ?x377 A_3 A_1 ?x459 ?x784 (* (- 1.0) S_3) ?x485 L_4) 0.0)))
 (let (($x1087 (<= (+ A_2 ?x472 (* (- 1.0) S_3)) 0.0)))
 (let (($x46018 (or $x51 (<= (+ A_4 ?x385 ?x389 L_2 ?x852 S_1 L_1 ?x446) 0.0))))
 (let ((?x2270 (+ ?x381 A_1 ?x485 ?x784 L_3)))
 (let (($x19150 (<= 0.0 ?x2270)))
 (let (($x19151 (not $x19150)))
 (let (($x990 (= (+ ?x381 A_1 ?x784 ?x485 L_3) 0.0)))
 (let (($x45600 (or $x71 (<= (+ ?x381 A_2 A_1 ?x1001 ?x472 ?x485 L_3 L_0) 0.0) (not (<= (+ A_2 ?x1001 ?x472 ?x852 L_0) 0.0)))))
 (let (($x26615 (or $x71 $x990 (<= (+ ?x381 A_2 A_1 ?x472 ?x439 ?x862 ?x485 L_3) 0.0) $x19151)))
 (let (($x45974 (or $x71 $x990 (<= (+ ?x381 A_2 A_1 ?x472 C ?x419 ?x485 L_3) 0.0) $x19151)))
 (let (($x45272 (or $x51 (<= (+ A_3 ?x385 ?x389 L_2 ?x439 S_1 L_1 ?x459) 0.0))))
 (let (($x45406 (or $x71 $x990 (<= (+ ?x381 A_2 A_1 ?x472 (* (- 1.0) S_1) ?x485 L_3) 0.0) $x19151)))
 (let ((?x2492 (+ ?x389 C S_0 L_1)))
 (let (($x19175 (<= 0.0 ?x2492)))
 (let (($x26847 (or $x81 (= (+ ?x377 A_2 ?x784 ?x472 L_4) 0.0) $x2711 (not (<= 0.0 ?x750)))))
 (let (($x19372 (or $x1087 (<= (+ A_1 ?x485 C (* (- 1.0) S_3)) 0.0) (not $x19175))))
 (let (($x3608 (or $x1052 (<= (+ A_1 ?x485 ?x784 (* (- 1.0) S_4)) 0.0) (<= (+ (* 3.0 C) (* (- 1.0) S_4) S_0) 0.0) $x2711)))
 (let (($x25352 (or $x81 (= (+ ?x377 A_3 C ?x459 L_4) 0.0) (not (<= 0.0 ?x2545)))))
 (let ((?x1784 (+ ?x385 C S_1 L_2)))
 (let (($x19234 (<= 0.0 ?x1784)))
 (let (($x108 (>= S_1 S_0)))
 (let (($x111 (>= S_2 S_1)))
 (let (($x114 (>= S_3 S_2)))
 (let (($x117 (>= S_4 S_3)))
 (let (($x119 (>= A_1 A_0)))
 (let (($x120 (>= A_2 A_1)))
 (let (($x121 (>= A_3 A_2)))
 (let (($x122 (>= A_4 A_3)))
 (and $x122 $x121 $x120 $x119 $x117 $x114 $x111 $x108 (or $x51 (not (<= 0.0 (+ ?x485 L_0)))) (or $x61 (not (<= 0.0 (+ L_1 ?x472)))) (or $x81 (<= (+ ?x377 A_3 ?x472 C L_4) 0.0) (not $x71)) (or $x61 (<= (+ ?x385 ?x852 S_4 L_2) (- 5.0))) (or $x61 $x274) (or $x61 (<= 0.0 ?x750)) (or $x71 (= (+ ?x381 A_2 C ?x472 L_3) 0.0) $x19097) (or $x61 (<= ?x1784 (- 5.0))) (or $x81 (not (<= 0.0 (+ L_3 ?x446)))) (<= (+ ?x1001 ?x439 S_1 L_0) 0.0) (or (<= (+ A_1 ?x485 ?x419) 0.0) (<= (+ C ?x419 S_0) 0.0)) (or (<= (+ C (* (- 1.0) S_4) S_2) 0.0) $x2711) (or (<= (+ ?x784 (* (- 1.0) S_4) S_1) 0.0) $x2711 $x19234) (or $x71 (not (<= 0.0 (+ L_2 ?x459)))) (or $x71 (<= (+ ?x381 S_3 L_3) (- 5.0))) (or $x71 (<= 0.0 ?x2545)) $x25352 $x3608 (or $x1087 (<= (+ C (* (- 1.0) S_3) S_1) 0.0)) $x19372 (<= (+ ?x389 L_1 S_1) 0.0) (or $x61 (<= (+ ?x385 S_2 L_2) (- 5.0))) $x26847 (or $x51 $x19150) (or $x51 (<= 0.0 (+ ?x385 A_1 ?x485 C L_2))) (or $x61 $x19175 $x19182) (or $x1087 (<= (+ ?x784 (* (- 1.0) S_3) S_0) 0.0) $x19175) (or $x51 (<= (+ ?x389 S_1 L_1) (- 5.0))) (<= (+ ?x377 L_4 S_4) 0.0) (<= (+ ?x385 L_2 ?x852 S_4) 0.0) (<= (+ (* (- 3.0) C) S_2 ?x862) 0.0) (<= (+ ?x852 S_2 (* (- 1.0) S_1)) 0.0) (<= (+ ?x1001 ?x852 S_2 L_0) 0.0) (<= (+ ?x385 L_2 ?x439 S_3) 0.0) (<= (+ ?x381 L_3 S_3) 0.0) (<= (+ (* (- 3.0) C) S_3 (* (- 1.0) S_1)) 0.0) (or $x71 (<= (+ ?x381 C S_2 L_3) (- 5.0))) (or $x71 $x990 $x1087 $x19151) (or $x71 $x990 $x19151 $x19293) $x45406 $x45272 $x45974 (or $x61 (<= 0.0 (+ A_2 ?x389 ?x472 ?x439 L_1))) (or $x51 (<= (+ ?x389 ?x439 S_2 L_1) (- 5.0))) (or $x51 (<= ?x2492 (- 5.0))) $x26615 $x45600 (or $x71 $x990 (<= (+ A_2 ?x1001 ?x472 ?x852 L_0) 0.0) $x19151) (or $x71 $x990 $x1052 $x19151) (or $x51 (<= (+ A_4 ?x389 (* (- 3.0) C) L_1 ?x446) 0.0)) $x46018 (or $x81 $x1087 $x6431 $x19826) (or $x81 $x2711 $x18826 $x19826) (or $x81 $x1052 $x2711 $x19826) $x45548 (or $x81 $x18826 $x19204 $x19826) $x45476 $x45446 $x46581 $x46757 (or $x51 (<= (+ A_4 ?x381 ?x389 L_3 S_0 L_1 ?x446) 0.0)) $x45532 $x44258 $x45969 (or $x51 (<= (+ A_3 ?x385 ?x389 L_2 S_0 L_1 ?x459) 0.0)) (<= (+ ?x1001 (* (- 4.0) C) S_4 L_0) 0.0) (<= (+ ?x381 L_3 ?x439 S_4) 0.0) (<= (+ ?x852 S_3 ?x419) 0.0) $x46706 (<= (+ (* (- 5.0) C) S_4 ?x862) 0.0) (or $x51 (<= (+ ?x389 (* (- 3.0) C) S_4 L_1) (- 5.0))) $x45794 $x45782 $x46275 (or $x61 (<= (+ A_4 ?x381 ?x385 L_3 S_1 L_2 ?x446) 0.0)) (or $x81 (<= (+ ?x377 C S_3 L_4) (- 5.0))) (or $x81 $x19204 $x19859) (or $x81 $x2671 $x19859) $x46228 $x23267 (or $x81 $x2560 $x19859) $x45894 (or $x81 (= ?x2475 0.0) (not $x19211) $x19859) $x46439 $x21288 $x21362 (or $x71 (<= (+ ?x381 ?x439 S_4 L_3) (- 5.0))) $x45767 (or $x71 $x19293 (<= (+ ?x381 ?x784 S_1 L_3) (- 5.0))) (<= (+ (* (- 4.0) C) S_4 (* (- 1.0) S_1)) 0.0) $x21627 $x46231 (<= (+ ?x1001 (* (- 3.0) C) S_3 L_0) 0.0) (<= (+ (* (- 4.0) C) S_3 ?x862) 0.0) (<= (+ (* (- 3.0) C) S_4 ?x419) 0.0) (or $x81 (<= (+ ?x377 S_4 L_4) (- 5.0))) (or $x81 $x19204 (<= (+ ?x377 ?x784 S_2 L_4) (- 5.0))) (or $x81 $x18826 $x19204 (<= (+ ?x377 (* 3.0 C) S_1 L_4) (- 5.0))) $x22147 (<= (+ ?x389 L_1 (* (- 3.0) C) S_4) 0.0) $x729 $x34 (<= (+ ?x852 S_1 ?x862) 0.0) (<= (+ ?x1001 S_0 L_0) 0.0) (<= (+ ?x385 L_2 S_2) 0.0) (<= (+ ?x389 L_1 ?x439 S_2) 0.0) (<= (+ ?x852 S_4 (* (- 1.0) S_3)) 0.0) (<= (+ ?x389 L_1 ?x852 S_3) 0.0)))))))))))))))))))))))))))))))))))))))))))))))))))))))))))))))))))))))))))))))))))))))))))))
(check-sat)
